COMMENT : path
TYPE: TSP
DIMENSION: 18
EDGE_WEIGHT_TYPE: EUC_3D
NODE_COORD_SECTION
1 8.53551 57.9352 52.4164
2 9.52988 71.7042 41.0657
3 4.82369 67.2011 46.9228
4 7.70281 65.9618 39.1793
5 10.1446 73.3656 47.8572
6 4.13186 63.2526 46.6101
7 46.4488 36.2474 43.1531
8 57.6102 24.8416 27.7346
9 57.9452 24.6283 41.2223
10 59.0538 23.2976 45.4224
11 50.3203 32.718 51.0353
12 59.5451 22.7579 36.2316
13 59.5396 22.9343 21.5994
14 62.8214 20.0903 47.882
15 35.9587 42.4187 44.2413
16 40.3098 43.4998 54.9074
17 37.2314 46.8934 55.9784
18 44.1301 39.4144 56.0778
